NAME : mcpfd.151.tour
COMMENT : Length = 151
COMMENT : Found by LKH [Keld Helsgaun] Sun Aug 25 22:28:11 2024
TYPE : TOUR
DIMENSION : 20
TOUR_SECTION
1
13
11
6
9
12
7
8
15
17
2
20
4
19
3
10
16
5
14
18
-1
EOF
